
%FILE DATA:	Soccer Computational Problem for MiniZinc Models	%
%AUTHOR:	Jack Wall	%
%CONTACT:  	116397063@umail.ucc.ie			%
%LAST UPDATE:	03/11/2020, 17:01:55						%
%DESCRIPTION: 	117 games played with 39 games left				%


n=13; %number of teams

%Games to play
games=[|11,13|5,7|5,10|8,9|6,1|3,8|8,12|13,7|12,4|9,7|8,1|11,6|5,3|7,5|4,12|8,5|1,6|6,2|9,3|11,12|8,7|3,2|11,4|5,4|4,7|1,4|2,6|11,7|9,6|6,3|1,13|7,6|7,12|4,5|9,5|10,5|11,9|2,4|1,11|];

%Initial points
iPoints=[28,28,11,27,24,23,18,26,14,24,29,23,37];

%POSITION CONSTRAINTS
% [|teamID, operator, position|...]
% operators index:
%  1 for =  operator
%  2 for >  operator
%  3 for >= operator
%  4 for <  operator
%  5 for <= operator
positionConstraints=[|13,3,1|11,1,2|5,2,2|4,4,5|8,3,5|];